1628660
57 18 27906
18 10 28652
10 44 75759
44 53 84806
53 37 6554
37 62 30446
62 39 8740
39 51 11004
51 35 8926
35 68 19070
68 50 52828
50 28 10810
28 36 23031
36 59 8563
59 16 10880
16 63 14689
63 48 23516
48 2 7938
2 9 17744
9 15 8460
15 8 6874
8 58 13673
58 17 6718
17 27 1445
27 45 8214
45 65 16726
65 20 13332
20 4 4440
4 13 15762
13 54 13536
54 47 18520
47 24 15612
24 61 5437
61 21 26988
21 3 17216
3 42 13084
42 12 4831
12 1 10465
1 32 13128
32 56 1427
56 40 3489
40 5 3130
5 19 15574
19 49 8895
49 23 4353
23 60 7498
60 29 6419
29 6 14521
6 25 11949
25 30 1249
30 41 5056
41 38 39159
38 7 28523
7 67 19183
67 64 14572
64 11 35955
11 66 13370
66 26 57991
26 55 61621
55 34 20835
34 46 36286
46 43 69394
43 22 102153
22 31 39447
31 14 70585
14 52 39276
52 33 101509
33 57 88918
